examples/bernasconi/lp/bernasconi.20.3.lp
Minimize 
 obj: +1 z
 Subject to
cobj: -1 z -4 y#0 -4 y#1 -8 y#2 -8 y#3 -8 y#4 -8 y#5 -8 y#6 -8 y#7 -8 y#8 -8 y#9 -8 y#10 -8 y#11 -8 y#12 -8 y#13 -8 y#14 -8 y#15 -8 y#16 -8 y#17 -4 y#18 -4 y#19 +8 y#20 +8 y#21 +8 y#22 +8 y#23 +8 y#24 +8 y#25 +8 y#26 +8 y#27 +8 y#28 +8 y#29 +8 y#30 +8 y#31 +8 y#32 +8 y#33 +8 y#34 +8 y#35 +8 y#36 +8 y#37 <= 0
cst0: y#0 - x#20 <= 0
cst1: x#20 - y#0 <= 0
cst2: y#1 - x#19 <= 0
cst3: x#19 - y#1 <= 0
cst4: y#2 - x#18 <= 0
cst5: x#18 - y#2 <= 0
cst6: y#3 - x#17 <= 0
cst7: x#17 - y#3 <= 0
cst8: y#4 - x#16 <= 0
cst9: x#16 - y#4 <= 0
cst10: y#5 - x#15 <= 0
cst11: x#15 - y#5 <= 0
cst12: y#6 - x#14 <= 0
cst13: x#14 - y#6 <= 0
cst14: y#7 - x#13 <= 0
cst15: x#13 - y#7 <= 0
cst16: y#8 - x#12 <= 0
cst17: x#12 - y#8 <= 0
cst18: y#9 - x#11 <= 0
cst19: x#11 - y#9 <= 0
cst20: y#10 - x#10 <= 0
cst21: x#10 - y#10 <= 0
cst22: y#11 - x#9 <= 0
cst23: x#9 - y#11 <= 0
cst24: y#12 - x#8 <= 0
cst25: x#8 - y#12 <= 0
cst26: y#13 - x#7 <= 0
cst27: x#7 - y#13 <= 0
cst28: y#14 - x#6 <= 0
cst29: x#6 - y#14 <= 0
cst30: y#15 - x#5 <= 0
cst31: x#5 - y#15 <= 0
cst32: y#16 - x#4 <= 0
cst33: x#4 - y#16 <= 0
cst34: y#17 - x#3 <= 0
cst35: x#3 - y#17 <= 0
cst36: y#18 - x#2 <= 0
cst37: x#2 - y#18 <= 0
cst38: y#19 - x#1 <= 0
cst39: x#1 - y#19 <= 0
cst40: y#20 - x#18 <= 0
cst41: y#20 - x#20 <= 0
cst42: x#18 + x#20 - y#20 <= 1
cst43: y#21 - x#17 <= 0
cst44: y#21 - x#19 <= 0
cst45: x#17 + x#19 - y#21 <= 1
cst46: y#22 - x#16 <= 0
cst47: y#22 - x#18 <= 0
cst48: x#16 + x#18 - y#22 <= 1
cst49: y#23 - x#15 <= 0
cst50: y#23 - x#17 <= 0
cst51: x#15 + x#17 - y#23 <= 1
cst52: y#24 - x#14 <= 0
cst53: y#24 - x#16 <= 0
cst54: x#14 + x#16 - y#24 <= 1
cst55: y#25 - x#13 <= 0
cst56: y#25 - x#15 <= 0
cst57: x#13 + x#15 - y#25 <= 1
cst58: y#26 - x#12 <= 0
cst59: y#26 - x#14 <= 0
cst60: x#12 + x#14 - y#26 <= 1
cst61: y#27 - x#11 <= 0
cst62: y#27 - x#13 <= 0
cst63: x#11 + x#13 - y#27 <= 1
cst64: y#28 - x#10 <= 0
cst65: y#28 - x#12 <= 0
cst66: x#10 + x#12 - y#28 <= 1
cst67: y#29 - x#9 <= 0
cst68: y#29 - x#11 <= 0
cst69: x#9 + x#11 - y#29 <= 1
cst70: y#30 - x#8 <= 0
cst71: y#30 - x#10 <= 0
cst72: x#8 + x#10 - y#30 <= 1
cst73: y#31 - x#7 <= 0
cst74: y#31 - x#9 <= 0
cst75: x#7 + x#9 - y#31 <= 1
cst76: y#32 - x#6 <= 0
cst77: y#32 - x#8 <= 0
cst78: x#6 + x#8 - y#32 <= 1
cst79: y#33 - x#5 <= 0
cst80: y#33 - x#7 <= 0
cst81: x#5 + x#7 - y#33 <= 1
cst82: y#34 - x#4 <= 0
cst83: y#34 - x#6 <= 0
cst84: x#4 + x#6 - y#34 <= 1
cst85: y#35 - x#3 <= 0
cst86: y#35 - x#5 <= 0
cst87: x#3 + x#5 - y#35 <= 1
cst88: y#36 - x#2 <= 0
cst89: y#36 - x#4 <= 0
cst90: x#2 + x#4 - y#36 <= 1
cst91: y#37 - x#1 <= 0
cst92: y#37 - x#3 <= 0
cst93: x#1 + x#3 - y#37 <= 1
Bounds
z free
Binary
x#1 x#2 x#3 x#4 x#5 x#6 x#7 x#8 x#9 x#10 x#11 x#12 x#13 x#14 x#15 x#16 x#17 x#18 x#19 x#20y#0 y#1 y#2 y#3 y#4 y#5 y#6 y#7 y#8 y#9 y#10 y#11 y#12 y#13 y#14 y#15 y#16 y#17 y#18 y#19 y#20 y#21 y#22 y#23 y#24 y#25 y#26 y#27 y#28 y#29 y#30 y#31 y#32 y#33 y#34 y#35 y#36 y#37
End
